
        $ From http://www.csplib.org/Problems/prob009/data/helmut.pdf
        $ Problem number 69
        $ Sequence length : 25
        language ESSENCE' 1.0
        letting sizemaster be 284
        letting sizes be sequence(1,2,11,12,14,16,18,19,23,26,29,37,38,39,40,42,59,68,69,77,78,97,106,109,110)
        